experiments/eusolverbv/3/DirectTrainGenes/000000101001101000110111101100110010010011110/108_.out
(define-fun f ((x (BitVec 64))) (BitVec 64)
     (if0 (func32 (func45 x)) (shr4 (func45 (func52 x))) (if0 (func30 (func32 x) x) (if0 (func30 #x0000000000000001 (func56 x)) (shr4 x) (func56 (shr4 x))) (shr4 x))))
1.8486010655760765
